============================[ Problem Statistics ]=============================|                                                                             ||  Number of variables:          4242                                         ||  Number of clauses:           10160                                         ||  Parse time:                   0.55 s                                       ||                                                                             |============================[ Search Statistics ]==============================| Conflicts |          ORIGINAL         |          LEARNT          | Progress ||           |    Vars  Clauses Literals |    Limit  Clauses Lit/Cl |          |===============================================================================|       100 |    1591     6365   874116 |     2333      100     53 | 62.501 % ||       250 |    1591     6365   874116 |     2567      250     75 | 62.495 % |===============================================================================restarts              : 3conflicts             : 304            (368 /sec)decisions             : 569            (0.00 % random) (689 /sec)propagations          : 11861          (14360 /sec)conflict literals     : 24043          (94.73 % deleted)CPU time              : 0.826 sSATISFIABLE